p cnf 96 216
-11 1 0
-11 2 0
-12 1 0
-12 3 0
-13 1 0
-13 4 0
-14 1 0
-14 5 0
-15 1 0
-15 6 0
-16 1 0
-16 7 0
-17 1 0
-17 8 0
-18 1 0
-18 9 0
-19 1 0
-19 10 0
-20 2 0
-20 3 0
-21 2 0
-21 4 0
-22 2 0
-22 5 0
-23 2 0
-23 6 0
-24 2 0
-24 7 0
-25 2 0
-25 8 0
-26 2 0
-26 9 0
-27 2 0
-27 10 0
-28 3 0
-28 4 0
-29 3 0
-29 5 0
-30 3 0
-30 6 0
-31 3 0
-31 7 0
-32 3 0
-32 8 0
-33 3 0
-33 9 0
-34 3 0
-34 10 0
-35 4 0
-35 5 0
-36 4 0
-36 6 0
-37 4 0
-37 7 0
-38 4 0
-38 8 0
-39 4 0
-39 9 0
-40 4 0
-40 10 0
-41 5 0
-41 6 0
-42 5 0
-42 7 0
-43 5 0
-43 8 0
-44 5 0
-44 9 0
-45 5 0
-45 10 0
-46 6 0
-46 7 0
-47 6 0
-47 8 0
-48 6 0
-48 9 0
-49 6 0
-49 10 0
-50 7 0
-50 8 0
-51 7 0
-51 9 0
-52 7 0
-52 10 0
-53 8 0
-53 9 0
-54 8 0
-54 10 0
-55 9 0
-55 10 0
-64 56 0
-64 57 0
-65 56 0
-65 58 0
-66 56 0
-66 59 0
-67 56 0
-67 60 0
-68 56 0
-68 61 0
-69 56 0
-69 62 0
-70 56 0
-70 63 0
-71 57 0
-71 58 0
-72 57 0
-72 59 0
-73 57 0
-73 60 0
-74 57 0
-74 61 0
-75 57 0
-75 62 0
-76 57 0
-76 63 0
-77 58 0
-77 59 0
-78 58 0
-78 60 0
-79 58 0
-79 61 0
-80 58 0
-80 62 0
-81 58 0
-81 63 0
-82 59 0
-82 60 0
-83 59 0
-83 61 0
-84 59 0
-84 62 0
-85 59 0
-85 63 0
-86 60 0
-86 61 0
-87 60 0
-87 62 0
-88 60 0
-88 63 0
-89 61 0
-89 62 0
-90 61 0
-90 63 0
-91 62 0
-91 63 0
-66 0
-68 0
-69 0
-70 0
-71 0
-73 0
-75 0
-76 0
-78 0
-79 0
-81 0
-82 0
-83 0
-84 0
-88 0
-89 0
-64 -65 0
-64 -67 0
-65 -67 0
-64 -72 0
-64 -74 0
-72 -74 0
-65 -77 0
-65 -80 0
-77 -80 0
-72 -77 0
-72 -85 0
-77 -85 0
-67 -86 0
-67 -87 0
-86 -87 0
-74 -86 0
-74 -90 0
-86 -90 0
-80 -87 0
-80 -91 0
-87 -91 0
-85 -90 0
-85 -91 0
-90 -91 0
-56 64 65 67 0
-57 64 72 74 0
-58 65 77 80 0
-59 72 77 85 0
-60 67 86 87 0
-61 74 86 90 0
-62 80 87 91 0
-63 85 90 91 0
56 57 0
56 58 0
56 60 0
57 59 0
57 61 0
58 59 0
58 62 0
59 63 0
60 61 0
60 62 0
61 63 0
62 63 0
-64 0
-65 0
-67 0
92 0
93 0
-94 0
-95 96 0
66 67 68 69 70 71 73 74 75 76 77 78 79 81 82 83 84 88 89 91 95 0
65 66 68 69 70 71 72 73 75 76 78 79 81 82 83 84 86 88 89 91 95 0
-96 0
